(set-logic QF_S)
(declare-fun var_0xINPUT_278593 () String)
(assert (and (= (len var_0xINPUT_278593) 0) (= (len var_0xINPUT_278593) 0) (not (= var_0xINPUT_278593 "4PH2ujcENG"))))
(check-sat var_0xINPUT_278593)